results_rootrelaxation/bin012_090_032.srr.sol
solution status: optimal solution found
objective value:                     33.3333333333333
_var729_                            0.333333333333333 	(obj:2)
_var748_                            0.333333333333334 	(obj:4)
_var750_                            0.333333333333333 	(obj:2)
_var784_                            0.666666666666667 	(obj:2)
_var788_                            0.666666666666667 	(obj:2)
_var790_                            0.666666666666667 	(obj:1)
_var796_                            0.333333333333333 	(obj:3)
_var802_                            0.333333333333333 	(obj:4)
_var824_                            0.333333333333334 	(obj:4)
_var829_                            0.333333333333333 	(obj:3)
_var830_                            0.333333333333334 	(obj:5)
_var838_                            0.333333333333333 	(obj:2)
_var842_                            0.333333333333333 	(obj:3)
_var844_                            0.333333333333334 	(obj:3)
_var846_                            0.333333333333333 	(obj:5)
_var847_                            0.333333333333333 	(obj:4)
_var860_                            0.333333333333333 	(obj:1)
_var877_                            0.333333333333333 	(obj:2)
_var881_                            0.666666666666667 	(obj:4)
_var884_                            0.333333333333333 	(obj:3)
_var903_                            0.333333333333334 	(obj:4)
_var917_                            0.333333333333333 	(obj:5)
_var919_                            0.333333333333333 	(obj:2)
_var920_                            0.333333333333333 	(obj:3)
_var921_                            0.333333333333333 	(obj:2)
_var929_                            0.333333333333333 	(obj:3)
_var934_                            0.333333333333333 	(obj:4)
_var950_                            0.333333333333333 	(obj:4)
_var958_                            0.333333333333334 	(obj:5)
